db/inputs/197181987755846434811662953043921477.smt2
(set-logic QF_FP)
(declare-const x0 (_ FloatingPoint 11 53))
(declare-const x1 (_ FloatingPoint 11 53))
(declare-const x2 (_ FloatingPoint 11 53))
(declare-const x3 (_ FloatingPoint 11 53))
(declare-const x4 (_ FloatingPoint 11 53))
(declare-const x5 (_ FloatingPoint 11 53))
(declare-const x6 (_ FloatingPoint 11 53))
(declare-const x7 (_ FloatingPoint 11 53))
(declare-const x8 (_ FloatingPoint 11 53))
(declare-const x9 (_ FloatingPoint 11 53))
(declare-const x10 (_ FloatingPoint 11 53))
(declare-const x11 (_ FloatingPoint 11 53))
(declare-const x12 (_ FloatingPoint 11 53))
(declare-const x13 (_ FloatingPoint 11 53))
(declare-const x14 (_ FloatingPoint 11 53))
(declare-const x15 (_ FloatingPoint 11 53))
(declare-const x16 (_ FloatingPoint 11 53))
(declare-const x17 (_ FloatingPoint 11 53))
(declare-const x18 (_ FloatingPoint 11 53))
(declare-const x19 (_ FloatingPoint 11 53))
(declare-const x20 (_ FloatingPoint 11 53))
(assert (fp.eq (fp.sub RNE x9 x3) (fp.neg x16)))
(assert (fp.geq (fp.neg x20) (fp.mul RNE x17 x10)))
(assert (fp.geq (fp.add RNE x13 x3) (fp.mul RNE x2 x17)))
(assert (fp.gt (fp.div RNE x9 x6) (fp.sub RNE x14 x0)))
(assert (fp.eq (fp.mul RNE x11 x1) (fp.div RNE x3 x12)))
(assert (fp.leq (fp.add RNE x19 x7) (fp.neg x4)))
(assert (fp.eq (fp.add RNE x2 x7) (fp.neg x15)))
(assert (fp.leq (fp.mul RNE x16 x0) (fp.sub RNE x0 x8)))
(assert (fp.leq (fp.div RNE x13 x14) (fp.mul RNE x12 x5)))
(assert (fp.gt (fp.div RNE x17 x14) (fp.div RNE x18 x5)))
(assert (fp.leq (fp.div RNE x0 x15) (fp.div RNE x18 x13)))
(assert (fp.gt (fp.mul RNE x20 x10) (fp.mul RNE x12 x19)))
(assert (fp.eq (fp.sub RNE x8 x15) (fp.add RNE x15 x17)))
(check-sat)
