db/data/197181987755846434811662953043921477.z3.out
-------------------
2500.238285561
